\ENCODING=ISO-8859-1
\Problem name: IloCplex

Minimize
 obj1: obj
Subject To
 TreeCost(0)#0:                 - 2 x(0,0) - 2 x(1,0) - 9 x(2,0) - 15 x(3,0)
                                - 20 x(4,0) - 35 x(5,0) - 40 x(6,0) - 46 x(7,0)
                                - 48 x(8,0) - 64 x(9,0) - 69 x(10,0)
                                - 74 x(11,0) - 74 x(12,0) - 79 x(13,0)
                                - 81 x(14,0) - 87 x(15,0) - 93 x(16,0)
                                - 99 x(17,0) + obj >= 0
 TreeCost(1)#1:                 obj - 2 x(0,1) - 2 x(1,1) - 9 x(2,1)
                                - 15 x(3,1) - 20 x(4,1) - 35 x(5,1) - 40 x(6,1)
                                - 46 x(7,1) - 48 x(8,1) - 64 x(9,1)
                                - 69 x(10,1) - 74 x(11,1) - 74 x(12,1)
                                - 79 x(13,1) - 81 x(14,1) - 87 x(15,1)
                                - 93 x(16,1) - 99 x(17,1) >= 0
 TreeCost(2)#2:                 obj - 2 x(0,2) - 2 x(1,2) - 9 x(2,2)
                                - 15 x(3,2) - 20 x(4,2) - 35 x(5,2) - 40 x(6,2)
                                - 46 x(7,2) - 48 x(8,2) - 64 x(9,2)
                                - 69 x(10,2) - 74 x(11,2) - 74 x(12,2)
                                - 79 x(13,2) - 81 x(14,2) - 87 x(15,2)
                                - 93 x(16,2) - 99 x(17,2) >= 0
 PicknkV#3:                     x(0,0) + x(1,0) + x(2,0) + x(3,0) + x(4,0)
                                + x(5,0) + x(6,0) + x(7,0) + x(8,0) + x(9,0)
                                + x(10,0) + x(11,0) + x(12,0) + x(13,0)
                                + x(14,0) + x(15,0) + x(16,0) + x(17,0)
                                + x(0,1) + x(1,1) + x(2,1) + x(3,1) + x(4,1)
                                + x(5,1) + x(6,1) + x(7,1) + x(8,1) + x(9,1)
                                + x(10,1) + x(11,1) + x(12,1) + x(13,1)
                                + x(14,1) + x(15,1) + x(16,1) + x(17,1)
                                + x(0,2) + x(1,2) + x(2,2) + x(3,2) + x(4,2)
                                + x(5,2) + x(6,2) + x(7,2) + x(8,2) + x(9,2)
                                + x(10,2) + x(11,2) + x(12,2) + x(13,2)
                                + x(14,2) + x(15,2) + x(16,2) + x(17,2)  = 7
 _EachEdgeToTree(0)#4:          x(0,0) + x(0,1) + x(0,2) <= 1
 _EachEdgeToTree(1)#5:          x(1,0) + x(1,1) + x(1,2) <= 1
 _EachEdgeToTree(2)#6:          x(2,0) + x(2,1) + x(2,2) <= 1
 _EachEdgeToTree(3)#7:          x(3,0) + x(3,1) + x(3,2) <= 1
 _EachEdgeToTree(4)#8:          x(4,0) + x(4,1) + x(4,2) <= 1
 _EachEdgeToTree(5)#9:          x(5,0) + x(5,1) + x(5,2) <= 1
 _EachEdgeToTree(6)#10:         x(6,0) + x(6,1) + x(6,2) <= 1
 _EachEdgeToTree(7)#11:         x(7,0) + x(7,1) + x(7,2) <= 1
 _EachEdgeToTree(8)#12:         x(8,0) + x(8,1) + x(8,2) <= 1
 _EachEdgeToTree(9)#13:         x(9,0) + x(9,1) + x(9,2) <= 1
 _EachEdgeToTree(10)#14:        x(10,0) + x(10,1) + x(10,2) <= 1
 _EachEdgeToTree(11)#15:        x(11,0) + x(11,1) + x(11,2) <= 1
 _EachEdgeToTree(12)#16:        x(12,0) + x(12,1) + x(12,2) <= 1
 _EachEdgeToTree(13)#17:        x(13,0) + x(13,1) + x(13,2) <= 1
 _EachEdgeToTree(14)#18:        x(14,0) + x(14,1) + x(14,2) <= 1
 _EachEdgeToTree(15)#19:        x(15,0) + x(15,1) + x(15,2) <= 1
 _EachEdgeToTree(16)#20:        x(16,0) + x(16,1) + x(16,2) <= 1
 _EachEdgeToTree(17)#21:        x(17,0) + x(17,1) + x(17,2) <= 1
 _EdgesOfVertex(0,0,1,0)#22:    x(0,0) + x(1,1) + x(1,2) <= 1
 _EdgesOfVertex(0,0,1,0)#23:    x(1,0) + x(0,1) + x(0,2) <= 1
 _EdgesOfVertex(0,0,1,1)#24:    x(1,0) + x(0,1) + x(1,2) <= 1
 _EdgesOfVertex(0,0,1,1)#25:    x(0,0) + x(1,1) + x(0,2) <= 1
 _EdgesOfVertex(0,0,7,0)#26:    x(0,0) + x(7,1) + x(7,2) <= 1
 _EdgesOfVertex(0,0,7,0)#27:    x(7,0) + x(0,1) + x(0,2) <= 1
 _EdgesOfVertex(0,0,7,1)#28:    x(7,0) + x(0,1) + x(7,2) <= 1
 _EdgesOfVertex(0,0,7,1)#29:    x(0,0) + x(7,1) + x(0,2) <= 1
 _EdgesOfVertex(0,0,10,0)#30:   x(0,0) + x(10,1) + x(10,2) <= 1
 _EdgesOfVertex(0,0,10,0)#31:   x(10,0) + x(0,1) + x(0,2) <= 1
 _EdgesOfVertex(0,0,10,1)#32:   x(10,0) + x(0,1) + x(10,2) <= 1
 _EdgesOfVertex(0,0,10,1)#33:   x(0,0) + x(10,1) + x(0,2) <= 1
 _EdgesOfVertex(0,0,11,0)#34:   x(0,0) + x(11,1) + x(11,2) <= 1
 _EdgesOfVertex(0,0,11,0)#35:   x(11,0) + x(0,1) + x(0,2) <= 1
 _EdgesOfVertex(0,0,11,1)#36:   x(11,0) + x(0,1) + x(11,2) <= 1
 _EdgesOfVertex(0,0,11,1)#37:   x(0,0) + x(11,1) + x(0,2) <= 1
 _EdgesOfVertex(0,0,14,0)#38:   x(0,0) + x(14,1) + x(14,2) <= 1
 _EdgesOfVertex(0,0,14,0)#39:   x(14,0) + x(0,1) + x(0,2) <= 1
 _EdgesOfVertex(0,0,14,1)#40:   x(14,0) + x(0,1) + x(14,2) <= 1
 _EdgesOfVertex(0,0,14,1)#41:   x(0,0) + x(14,1) + x(0,2) <= 1
 _EdgesOfVertex(0,1,7,0)#42:    x(1,0) + x(7,1) + x(7,2) <= 1
 _EdgesOfVertex(0,1,7,0)#43:    x(7,0) + x(1,1) + x(1,2) <= 1
 _EdgesOfVertex(0,1,7,1)#44:    x(7,0) + x(1,1) + x(7,2) <= 1
 _EdgesOfVertex(0,1,7,1)#45:    x(1,0) + x(7,1) + x(1,2) <= 1
 _EdgesOfVertex(0,1,10,0)#46:   x(1,0) + x(10,1) + x(10,2) <= 1
 _EdgesOfVertex(0,1,10,0)#47:   x(10,0) + x(1,1) + x(1,2) <= 1
 _EdgesOfVertex(0,1,10,1)#48:   x(10,0) + x(1,1) + x(10,2) <= 1
 _EdgesOfVertex(0,1,10,1)#49:   x(1,0) + x(10,1) + x(1,2) <= 1
 _EdgesOfVertex(0,1,11,0)#50:   x(1,0) + x(11,1) + x(11,2) <= 1
 _EdgesOfVertex(0,1,11,0)#51:   x(11,0) + x(1,1) + x(1,2) <= 1
 _EdgesOfVertex(0,1,11,1)#52:   x(11,0) + x(1,1) + x(11,2) <= 1
 _EdgesOfVertex(0,1,11,1)#53:   x(1,0) + x(11,1) + x(1,2) <= 1
 _EdgesOfVertex(0,1,14,0)#54:   x(1,0) + x(14,1) + x(14,2) <= 1
 _EdgesOfVertex(0,1,14,0)#55:   x(14,0) + x(1,1) + x(1,2) <= 1
 _EdgesOfVertex(0,1,14,1)#56:   x(14,0) + x(1,1) + x(14,2) <= 1
 _EdgesOfVertex(0,1,14,1)#57:   x(1,0) + x(14,1) + x(1,2) <= 1
 _EdgesOfVertex(0,7,10,0)#58:   x(7,0) + x(10,1) + x(10,2) <= 1
 _EdgesOfVertex(0,7,10,0)#59:   x(10,0) + x(7,1) + x(7,2) <= 1
 _EdgesOfVertex(0,7,10,1)#60:   x(10,0) + x(7,1) + x(10,2) <= 1
 _EdgesOfVertex(0,7,10,1)#61:   x(7,0) + x(10,1) + x(7,2) <= 1
 _EdgesOfVertex(0,7,11,0)#62:   x(7,0) + x(11,1) + x(11,2) <= 1
 _EdgesOfVertex(0,7,11,0)#63:   x(11,0) + x(7,1) + x(7,2) <= 1
 _EdgesOfVertex(0,7,11,1)#64:   x(11,0) + x(7,1) + x(11,2) <= 1
 _EdgesOfVertex(0,7,11,1)#65:   x(7,0) + x(11,1) + x(7,2) <= 1
 _EdgesOfVertex(0,7,14,0)#66:   x(7,0) + x(14,1) + x(14,2) <= 1
 _EdgesOfVertex(0,7,14,0)#67:   x(14,0) + x(7,1) + x(7,2) <= 1
 _EdgesOfVertex(0,7,14,1)#68:   x(14,0) + x(7,1) + x(14,2) <= 1
 _EdgesOfVertex(0,7,14,1)#69:   x(7,0) + x(14,1) + x(7,2) <= 1
 _EdgesOfVertex(0,10,11,0)#70:  x(10,0) + x(11,1) + x(11,2) <= 1
 _EdgesOfVertex(0,10,11,0)#71:  x(11,0) + x(10,1) + x(10,2) <= 1
 _EdgesOfVertex(0,10,11,1)#72:  x(11,0) + x(10,1) + x(11,2) <= 1
 _EdgesOfVertex(0,10,11,1)#73:  x(10,0) + x(11,1) + x(10,2) <= 1
 _EdgesOfVertex(0,10,14,0)#74:  x(10,0) + x(14,1) + x(14,2) <= 1
 _EdgesOfVertex(0,10,14,0)#75:  x(14,0) + x(10,1) + x(10,2) <= 1
 _EdgesOfVertex(0,10,14,1)#76:  x(14,0) + x(10,1) + x(14,2) <= 1
 _EdgesOfVertex(0,10,14,1)#77:  x(10,0) + x(14,1) + x(10,2) <= 1
 _EdgesOfVertex(0,11,14,0)#78:  x(11,0) + x(14,1) + x(14,2) <= 1
 _EdgesOfVertex(0,11,14,0)#79:  x(14,0) + x(11,1) + x(11,2) <= 1
 _EdgesOfVertex(0,11,14,1)#80:  x(14,0) + x(11,1) + x(14,2) <= 1
 _EdgesOfVertex(0,11,14,1)#81:  x(11,0) + x(14,1) + x(11,2) <= 1
 _EdgesOfVertex(1,0,9,0)#82:    x(0,0) + x(9,1) + x(9,2) <= 1
 _EdgesOfVertex(1,0,9,0)#83:    x(9,0) + x(0,1) + x(0,2) <= 1
 _EdgesOfVertex(1,0,9,1)#84:    x(9,0) + x(0,1) + x(9,2) <= 1
 _EdgesOfVertex(1,0,9,1)#85:    x(0,0) + x(9,1) + x(0,2) <= 1
 _EdgesOfVertex(1,0,17,0)#86:   x(0,0) + x(17,1) + x(17,2) <= 1
 _EdgesOfVertex(1,0,17,0)#87:   x(17,0) + x(0,1) + x(0,2) <= 1
 _EdgesOfVertex(1,0,17,1)#88:   x(17,0) + x(0,1) + x(17,2) <= 1
 _EdgesOfVertex(1,0,17,1)#89:   x(0,0) + x(17,1) + x(0,2) <= 1
 _EdgesOfVertex(1,9,17,0)#90:   x(9,0) + x(17,1) + x(17,2) <= 1
 _EdgesOfVertex(1,9,17,0)#91:   x(17,0) + x(9,1) + x(9,2) <= 1
 _EdgesOfVertex(1,9,17,1)#92:   x(17,0) + x(9,1) + x(17,2) <= 1
 _EdgesOfVertex(1,9,17,1)#93:   x(9,0) + x(17,1) + x(9,2) <= 1
 _EdgesOfVertex(2,3,13,0)#94:   x(3,0) + x(13,1) + x(13,2) <= 1
 _EdgesOfVertex(2,3,13,0)#95:   x(13,0) + x(3,1) + x(3,2) <= 1
 _EdgesOfVertex(2,3,13,1)#96:   x(13,0) + x(3,1) + x(13,2) <= 1
 _EdgesOfVertex(2,3,13,1)#97:   x(3,0) + x(13,1) + x(3,2) <= 1
 _EdgesOfVertex(2,3,17,0)#98:   x(3,0) + x(17,1) + x(17,2) <= 1
 _EdgesOfVertex(2,3,17,0)#99:   x(17,0) + x(3,1) + x(3,2) <= 1
 _EdgesOfVertex(2,3,17,1)#100:  x(17,0) + x(3,1) + x(17,2) <= 1
 _EdgesOfVertex(2,3,17,1)#101:  x(3,0) + x(17,1) + x(3,2) <= 1
 _EdgesOfVertex(2,13,17,0)#102: x(13,0) + x(17,1) + x(17,2) <= 1
 _EdgesOfVertex(2,13,17,0)#103: x(17,0) + x(13,1) + x(13,2) <= 1
 _EdgesOfVertex(2,13,17,1)#104: x(17,0) + x(13,1) + x(17,2) <= 1
 _EdgesOfVertex(2,13,17,1)#105: x(13,0) + x(17,1) + x(13,2) <= 1
 _EdgesOfVertex(3,12,14,0)#106: x(12,0) + x(14,1) + x(14,2) <= 1
 _EdgesOfVertex(3,12,14,0)#107: x(14,0) + x(12,1) + x(12,2) <= 1
 _EdgesOfVertex(3,12,14,1)#108: x(14,0) + x(12,1) + x(14,2) <= 1
 _EdgesOfVertex(3,12,14,1)#109: x(12,0) + x(14,1) + x(12,2) <= 1
 _EdgesOfVertex(4,1,5,0)#110:   x(1,0) + x(5,1) + x(5,2) <= 1
 _EdgesOfVertex(4,1,5,0)#111:   x(5,0) + x(1,1) + x(1,2) <= 1
 _EdgesOfVertex(4,1,5,1)#112:   x(5,0) + x(1,1) + x(5,2) <= 1
 _EdgesOfVertex(4,1,5,1)#113:   x(1,0) + x(5,1) + x(1,2) <= 1
 _EdgesOfVertex(4,1,15,0)#114:  x(1,0) + x(15,1) + x(15,2) <= 1
 _EdgesOfVertex(4,1,15,0)#115:  x(15,0) + x(1,1) + x(1,2) <= 1
 _EdgesOfVertex(4,1,15,1)#116:  x(15,0) + x(1,1) + x(15,2) <= 1
 _EdgesOfVertex(4,1,15,1)#117:  x(1,0) + x(15,1) + x(1,2) <= 1
 _EdgesOfVertex(4,5,15,0)#118:  x(5,0) + x(15,1) + x(15,2) <= 1
 _EdgesOfVertex(4,5,15,0)#119:  x(15,0) + x(5,1) + x(5,2) <= 1
 _EdgesOfVertex(4,5,15,1)#120:  x(15,0) + x(5,1) + x(15,2) <= 1
 _EdgesOfVertex(4,5,15,1)#121:  x(5,0) + x(15,1) + x(5,2) <= 1
 _EdgesOfVertex(5,4,7,0)#122:   x(4,0) + x(7,1) + x(7,2) <= 1
 _EdgesOfVertex(5,4,7,0)#123:   x(7,0) + x(4,1) + x(4,2) <= 1
 _EdgesOfVertex(5,4,7,1)#124:   x(7,0) + x(4,1) + x(7,2) <= 1
 _EdgesOfVertex(5,4,7,1)#125:   x(4,0) + x(7,1) + x(4,2) <= 1
 _EdgesOfVertex(5,4,8,0)#126:   x(4,0) + x(8,1) + x(8,2) <= 1
 _EdgesOfVertex(5,4,8,0)#127:   x(8,0) + x(4,1) + x(4,2) <= 1
 _EdgesOfVertex(5,4,8,1)#128:   x(8,0) + x(4,1) + x(8,2) <= 1
 _EdgesOfVertex(5,4,8,1)#129:   x(4,0) + x(8,1) + x(4,2) <= 1
 _EdgesOfVertex(5,4,9,0)#130:   x(4,0) + x(9,1) + x(9,2) <= 1
 _EdgesOfVertex(5,4,9,0)#131:   x(9,0) + x(4,1) + x(4,2) <= 1
 _EdgesOfVertex(5,4,9,1)#132:   x(9,0) + x(4,1) + x(9,2) <= 1
 _EdgesOfVertex(5,4,9,1)#133:   x(4,0) + x(9,1) + x(4,2) <= 1
 _EdgesOfVertex(5,4,13,0)#134:  x(4,0) + x(13,1) + x(13,2) <= 1
 _EdgesOfVertex(5,4,13,0)#135:  x(13,0) + x(4,1) + x(4,2) <= 1
 _EdgesOfVertex(5,4,13,1)#136:  x(13,0) + x(4,1) + x(13,2) <= 1
 _EdgesOfVertex(5,4,13,1)#137:  x(4,0) + x(13,1) + x(4,2) <= 1
 _EdgesOfVertex(5,4,15,0)#138:  x(4,0) + x(15,1) + x(15,2) <= 1
 _EdgesOfVertex(5,4,15,0)#139:  x(15,0) + x(4,1) + x(4,2) <= 1
 _EdgesOfVertex(5,4,15,1)#140:  x(15,0) + x(4,1) + x(15,2) <= 1
 _EdgesOfVertex(5,4,15,1)#141:  x(4,0) + x(15,1) + x(4,2) <= 1
 _EdgesOfVertex(5,4,16,0)#142:  x(4,0) + x(16,1) + x(16,2) <= 1
 _EdgesOfVertex(5,4,16,0)#143:  x(16,0) + x(4,1) + x(4,2) <= 1
 _EdgesOfVertex(5,4,16,1)#144:  x(16,0) + x(4,1) + x(16,2) <= 1
 _EdgesOfVertex(5,4,16,1)#145:  x(4,0) + x(16,1) + x(4,2) <= 1
 _EdgesOfVertex(5,7,8,0)#146:   x(7,0) + x(8,1) + x(8,2) <= 1
 _EdgesOfVertex(5,7,8,0)#147:   x(8,0) + x(7,1) + x(7,2) <= 1
 _EdgesOfVertex(5,7,8,1)#148:   x(8,0) + x(7,1) + x(8,2) <= 1
 _EdgesOfVertex(5,7,8,1)#149:   x(7,0) + x(8,1) + x(7,2) <= 1
 _EdgesOfVertex(5,7,9,0)#150:   x(7,0) + x(9,1) + x(9,2) <= 1
 _EdgesOfVertex(5,7,9,0)#151:   x(9,0) + x(7,1) + x(7,2) <= 1
 _EdgesOfVertex(5,7,9,1)#152:   x(9,0) + x(7,1) + x(9,2) <= 1
 _EdgesOfVertex(5,7,9,1)#153:   x(7,0) + x(9,1) + x(7,2) <= 1
 _EdgesOfVertex(5,7,13,0)#154:  x(7,0) + x(13,1) + x(13,2) <= 1
 _EdgesOfVertex(5,7,13,0)#155:  x(13,0) + x(7,1) + x(7,2) <= 1
 _EdgesOfVertex(5,7,13,1)#156:  x(13,0) + x(7,1) + x(13,2) <= 1
 _EdgesOfVertex(5,7,13,1)#157:  x(7,0) + x(13,1) + x(7,2) <= 1
 _EdgesOfVertex(5,7,15,0)#158:  x(7,0) + x(15,1) + x(15,2) <= 1
 _EdgesOfVertex(5,7,15,0)#159:  x(15,0) + x(7,1) + x(7,2) <= 1
 _EdgesOfVertex(5,7,15,1)#160:  x(15,0) + x(7,1) + x(15,2) <= 1
 _EdgesOfVertex(5,7,15,1)#161:  x(7,0) + x(15,1) + x(7,2) <= 1
 _EdgesOfVertex(5,7,16,0)#162:  x(7,0) + x(16,1) + x(16,2) <= 1
 _EdgesOfVertex(5,7,16,0)#163:  x(16,0) + x(7,1) + x(7,2) <= 1
 _EdgesOfVertex(5,7,16,1)#164:  x(16,0) + x(7,1) + x(16,2) <= 1
 _EdgesOfVertex(5,7,16,1)#165:  x(7,0) + x(16,1) + x(7,2) <= 1
 _EdgesOfVertex(5,8,9,0)#166:   x(8,0) + x(9,1) + x(9,2) <= 1
 _EdgesOfVertex(5,8,9,0)#167:   x(9,0) + x(8,1) + x(8,2) <= 1
 _EdgesOfVertex(5,8,9,1)#168:   x(9,0) + x(8,1) + x(9,2) <= 1
 _EdgesOfVertex(5,8,9,1)#169:   x(8,0) + x(9,1) + x(8,2) <= 1
 _EdgesOfVertex(5,8,13,0)#170:  x(8,0) + x(13,1) + x(13,2) <= 1
 _EdgesOfVertex(5,8,13,0)#171:  x(13,0) + x(8,1) + x(8,2) <= 1
 _EdgesOfVertex(5,8,13,1)#172:  x(13,0) + x(8,1) + x(13,2) <= 1
 _EdgesOfVertex(5,8,13,1)#173:  x(8,0) + x(13,1) + x(8,2) <= 1
 _EdgesOfVertex(5,8,15,0)#174:  x(8,0) + x(15,1) + x(15,2) <= 1
 _EdgesOfVertex(5,8,15,0)#175:  x(15,0) + x(8,1) + x(8,2) <= 1
 _EdgesOfVertex(5,8,15,1)#176:  x(15,0) + x(8,1) + x(15,2) <= 1
 _EdgesOfVertex(5,8,15,1)#177:  x(8,0) + x(15,1) + x(8,2) <= 1
 _EdgesOfVertex(5,8,16,0)#178:  x(8,0) + x(16,1) + x(16,2) <= 1
 _EdgesOfVertex(5,8,16,0)#179:  x(16,0) + x(8,1) + x(8,2) <= 1
 _EdgesOfVertex(5,8,16,1)#180:  x(16,0) + x(8,1) + x(16,2) <= 1
 _EdgesOfVertex(5,8,16,1)#181:  x(8,0) + x(16,1) + x(8,2) <= 1
 _EdgesOfVertex(5,9,13,0)#182:  x(9,0) + x(13,1) + x(13,2) <= 1
 _EdgesOfVertex(5,9,13,0)#183:  x(13,0) + x(9,1) + x(9,2) <= 1
 _EdgesOfVertex(5,9,13,1)#184:  x(13,0) + x(9,1) + x(13,2) <= 1
 _EdgesOfVertex(5,9,13,1)#185:  x(9,0) + x(13,1) + x(9,2) <= 1
 _EdgesOfVertex(5,9,15,0)#186:  x(9,0) + x(15,1) + x(15,2) <= 1
 _EdgesOfVertex(5,9,15,0)#187:  x(15,0) + x(9,1) + x(9,2) <= 1
 _EdgesOfVertex(5,9,15,1)#188:  x(15,0) + x(9,1) + x(15,2) <= 1
 _EdgesOfVertex(5,9,15,1)#189:  x(9,0) + x(15,1) + x(9,2) <= 1
 _EdgesOfVertex(5,9,16,0)#190:  x(9,0) + x(16,1) + x(16,2) <= 1
 _EdgesOfVertex(5,9,16,0)#191:  x(16,0) + x(9,1) + x(9,2) <= 1
 _EdgesOfVertex(5,9,16,1)#192:  x(16,0) + x(9,1) + x(16,2) <= 1
 _EdgesOfVertex(5,9,16,1)#193:  x(9,0) + x(16,1) + x(9,2) <= 1
 _EdgesOfVertex(5,13,15,0)#194: x(13,0) + x(15,1) + x(15,2) <= 1
 _EdgesOfVertex(5,13,15,0)#195: x(15,0) + x(13,1) + x(13,2) <= 1
 _EdgesOfVertex(5,13,15,1)#196: x(15,0) + x(13,1) + x(15,2) <= 1
 _EdgesOfVertex(5,13,15,1)#197: x(13,0) + x(15,1) + x(13,2) <= 1
 _EdgesOfVertex(5,13,16,0)#198: x(13,0) + x(16,1) + x(16,2) <= 1
 _EdgesOfVertex(5,13,16,0)#199: x(16,0) + x(13,1) + x(13,2) <= 1
 _EdgesOfVertex(5,13,16,1)#200: x(16,0) + x(13,1) + x(16,2) <= 1
 _EdgesOfVertex(5,13,16,1)#201: x(13,0) + x(16,1) + x(13,2) <= 1
 _EdgesOfVertex(5,15,16,0)#202: x(15,0) + x(16,1) + x(16,2) <= 1
 _EdgesOfVertex(5,15,16,0)#203: x(16,0) + x(15,1) + x(15,2) <= 1
 _EdgesOfVertex(5,15,16,1)#204: x(16,0) + x(15,1) + x(16,2) <= 1
 _EdgesOfVertex(5,15,16,1)#205: x(15,0) + x(16,1) + x(15,2) <= 1
 _EdgesOfVertex(6,3,6,0)#206:   x(3,0) + x(6,1) + x(6,2) <= 1
 _EdgesOfVertex(6,3,6,0)#207:   x(6,0) + x(3,1) + x(3,2) <= 1
 _EdgesOfVertex(6,3,6,1)#208:   x(6,0) + x(3,1) + x(6,2) <= 1
 _EdgesOfVertex(6,3,6,1)#209:   x(3,0) + x(6,1) + x(3,2) <= 1
 _EdgesOfVertex(6,3,8,0)#210:   x(3,0) + x(8,1) + x(8,2) <= 1
 _EdgesOfVertex(6,3,8,0)#211:   x(8,0) + x(3,1) + x(3,2) <= 1
 _EdgesOfVertex(6,3,8,1)#212:   x(8,0) + x(3,1) + x(8,2) <= 1
 _EdgesOfVertex(6,3,8,1)#213:   x(3,0) + x(8,1) + x(3,2) <= 1
 _EdgesOfVertex(6,3,11,0)#214:  x(3,0) + x(11,1) + x(11,2) <= 1
 _EdgesOfVertex(6,3,11,0)#215:  x(11,0) + x(3,1) + x(3,2) <= 1
 _EdgesOfVertex(6,3,11,1)#216:  x(11,0) + x(3,1) + x(11,2) <= 1
 _EdgesOfVertex(6,3,11,1)#217:  x(3,0) + x(11,1) + x(3,2) <= 1
 _EdgesOfVertex(6,6,8,0)#218:   x(6,0) + x(8,1) + x(8,2) <= 1
 _EdgesOfVertex(6,6,8,0)#219:   x(8,0) + x(6,1) + x(6,2) <= 1
 _EdgesOfVertex(6,6,8,1)#220:   x(8,0) + x(6,1) + x(8,2) <= 1
 _EdgesOfVertex(6,6,8,1)#221:   x(6,0) + x(8,1) + x(6,2) <= 1
 _EdgesOfVertex(6,6,11,0)#222:  x(6,0) + x(11,1) + x(11,2) <= 1
 _EdgesOfVertex(6,6,11,0)#223:  x(11,0) + x(6,1) + x(6,2) <= 1
 _EdgesOfVertex(6,6,11,1)#224:  x(11,0) + x(6,1) + x(11,2) <= 1
 _EdgesOfVertex(6,6,11,1)#225:  x(6,0) + x(11,1) + x(6,2) <= 1
 _EdgesOfVertex(6,8,11,0)#226:  x(8,0) + x(11,1) + x(11,2) <= 1
 _EdgesOfVertex(6,8,11,0)#227:  x(11,0) + x(8,1) + x(8,2) <= 1
 _EdgesOfVertex(6,8,11,1)#228:  x(11,0) + x(8,1) + x(11,2) <= 1
 _EdgesOfVertex(6,8,11,1)#229:  x(8,0) + x(11,1) + x(8,2) <= 1
 _EdgesOfVertex(7,4,5,0)#230:   x(4,0) + x(5,1) + x(5,2) <= 1
 _EdgesOfVertex(7,4,5,0)#231:   x(5,0) + x(4,1) + x(4,2) <= 1
 _EdgesOfVertex(7,4,5,1)#232:   x(5,0) + x(4,1) + x(5,2) <= 1
 _EdgesOfVertex(7,4,5,1)#233:   x(4,0) + x(5,1) + x(4,2) <= 1
 _EdgesOfVertex(7,4,6,0)#234:   x(4,0) + x(6,1) + x(6,2) <= 1
 _EdgesOfVertex(7,4,6,0)#235:   x(6,0) + x(4,1) + x(4,2) <= 1
 _EdgesOfVertex(7,4,6,1)#236:   x(6,0) + x(4,1) + x(6,2) <= 1
 _EdgesOfVertex(7,4,6,1)#237:   x(4,0) + x(6,1) + x(4,2) <= 1
 _EdgesOfVertex(7,5,6,0)#238:   x(5,0) + x(6,1) + x(6,2) <= 1
 _EdgesOfVertex(7,5,6,0)#239:   x(6,0) + x(5,1) + x(5,2) <= 1
 _EdgesOfVertex(7,5,6,1)#240:   x(6,0) + x(5,1) + x(6,2) <= 1
 _EdgesOfVertex(7,5,6,1)#241:   x(5,0) + x(6,1) + x(5,2) <= 1
 _EdgesOfVertex(8,2,12,0)#242:  x(2,0) + x(12,1) + x(12,2) <= 1
 _EdgesOfVertex(8,2,12,0)#243:  x(12,0) + x(2,1) + x(2,2) <= 1
 _EdgesOfVertex(8,2,12,1)#244:  x(12,0) + x(2,1) + x(12,2) <= 1
 _EdgesOfVertex(8,2,12,1)#245:  x(2,0) + x(12,1) + x(2,2) <= 1
 _EdgesOfVertex(9,2,10,0)#246:  x(2,0) + x(10,1) + x(10,2) <= 1
 _EdgesOfVertex(9,2,10,0)#247:  x(10,0) + x(2,1) + x(2,2) <= 1
 _EdgesOfVertex(9,2,10,1)#248:  x(10,0) + x(2,1) + x(10,2) <= 1
 _EdgesOfVertex(9,2,10,1)#249:  x(2,0) + x(10,1) + x(2,2) <= 1
 _EdgesOfVertex(9,2,16,0)#250:  x(2,0) + x(16,1) + x(16,2) <= 1
 _EdgesOfVertex(9,2,16,0)#251:  x(16,0) + x(2,1) + x(2,2) <= 1
 _EdgesOfVertex(9,2,16,1)#252:  x(16,0) + x(2,1) + x(16,2) <= 1
 _EdgesOfVertex(9,2,16,1)#253:  x(2,0) + x(16,1) + x(2,2) <= 1
 _EdgesOfVertex(9,10,16,0)#254: x(10,0) + x(16,1) + x(16,2) <= 1
 _EdgesOfVertex(9,10,16,0)#255: x(16,0) + x(10,1) + x(10,2) <= 1
 _EdgesOfVertex(9,10,16,1)#256: x(16,0) + x(10,1) + x(16,2) <= 1
 _EdgesOfVertex(9,10,16,1)#257: x(10,0) + x(16,1) + x(10,2) <= 1
Bounds
 0 <= x(0,0) <= 1
 0 <= x(1,0) <= 1
 0 <= x(2,0) <= 1
 0 <= x(3,0) <= 1
 0 <= x(4,0) <= 1
 0 <= x(5,0) <= 1
 0 <= x(6,0) <= 1
 0 <= x(7,0) <= 1
 0 <= x(8,0) <= 1
 0 <= x(9,0) <= 1
 0 <= x(10,0) <= 1
 0 <= x(11,0) <= 1
 0 <= x(12,0) <= 1
 0 <= x(13,0) <= 1
 0 <= x(14,0) <= 1
 0 <= x(15,0) <= 1
 0 <= x(16,0) <= 1
 0 <= x(17,0) <= 1
 0 <= x(0,1) <= 1
 0 <= x(1,1) <= 1
 0 <= x(2,1) <= 1
 0 <= x(3,1) <= 1
 0 <= x(4,1) <= 1
 0 <= x(5,1) <= 1
 0 <= x(6,1) <= 1
 0 <= x(7,1) <= 1
 0 <= x(8,1) <= 1
 0 <= x(9,1) <= 1
 0 <= x(10,1) <= 1
 0 <= x(11,1) <= 1
 0 <= x(12,1) <= 1
 0 <= x(13,1) <= 1
 0 <= x(14,1) <= 1
 0 <= x(15,1) <= 1
 0 <= x(16,1) <= 1
 0 <= x(17,1) <= 1
 0 <= x(0,2) <= 1
 0 <= x(1,2) <= 1
 0 <= x(2,2) <= 1
 0 <= x(3,2) <= 1
 0 <= x(4,2) <= 1
 0 <= x(5,2) <= 1
 0 <= x(6,2) <= 1
 0 <= x(7,2) <= 1
 0 <= x(8,2) <= 1
 0 <= x(9,2) <= 1
 0 <= x(10,2) <= 1
 0 <= x(11,2) <= 1
 0 <= x(12,2) <= 1
 0 <= x(13,2) <= 1
 0 <= x(14,2) <= 1
 0 <= x(15,2) <= 1
 0 <= x(16,2) <= 1
 0 <= x(17,2) <= 1
Binaries
 x(0,0)  x(1,0)  x(2,0)  x(3,0)  x(4,0)  x(5,0)  x(6,0)  x(7,0)  x(8,0) 
 x(9,0)  x(10,0)  x(11,0)  x(12,0)  x(13,0)  x(14,0)  x(15,0)  x(16,0) 
 x(17,0)  x(0,1)  x(1,1)  x(2,1)  x(3,1)  x(4,1)  x(5,1)  x(6,1)  x(7,1) 
 x(8,1)  x(9,1)  x(10,1)  x(11,1)  x(12,1)  x(13,1)  x(14,1)  x(15,1)  x(16,1) 
 x(17,1)  x(0,2)  x(1,2)  x(2,2)  x(3,2)  x(4,2)  x(5,2)  x(6,2)  x(7,2) 
 x(8,2)  x(9,2)  x(10,2)  x(11,2)  x(12,2)  x(13,2)  x(14,2)  x(15,2)  x(16,2) 
 x(17,2) 
End
